solution status: gap limit reached
objective value:                          45604.50347
y#2                                                 1 	(obj:5700)
y#3                                                 1 	(obj:5700)
y#4                                                 1 	(obj:5700)
y#5                                                 1 	(obj:5700)
y#9                                                 1 	(obj:5700)
y#31                                                1 	(obj:5700)
y#47                                                1 	(obj:5700)
y#49                                                1 	(obj:5700)
x#1#9                                               1 	(obj:0.01054)
x#2#31                                              1 	(obj:0.03468)
x#3#9                                               1 	(obj:0.01819)
x#4#5                                               1 	(obj:0.02873)
x#5#2                                               1 	(obj:0.05083)
x#6#5                                               1 	(obj:0.0289)
x#7#2                                               1 	(obj:0.03111)
x#8#4                                               1 	(obj:0.04556)
x#9#49                                              1 	(obj:0.15368)
x#10#2                                              1 	(obj:0.04556)
x#11#4                                              1 	(obj:0.06307)
x#12#4                                              1 	(obj:0.04097)
x#13#4                                              1 	(obj:0.01054)
x#14#3                                              1 	(obj:0.034)
x#15#9                                              1 	(obj:0.02278)
x#16#3                                              1 	(obj:0.04403)
x#17#4                                              1 	(obj:0.04369)
x#18#5                                              1 	(obj:0.00323)
x#19#3                                              1 	(obj:0.07021)
x#20#31                                             1 	(obj:0.05644)
x#21#2                                              1 	(obj:0.04216)
x#22#49                                             1 	(obj:0.06375)
x#23#49                                             1 	(obj:0.11815)
x#24#49                                             1 	(obj:0.10285)
x#25#49                                             1 	(obj:0.06613)
x#26#31                                             1 	(obj:0.04862)
x#27#4                                              1 	(obj:0.0442)
x#28#31                                             1 	(obj:0.14654)
x#29#9                                              1 	(obj:0.02686)
x#30#5                                              1 	(obj:0.01683)
x#31#3                                              1 	(obj:0.04267)
x#32#9                                              1 	(obj:0.00969)
x#33#4                                              1 	(obj:0.01972)
x#34#31                                             1 	(obj:0.03927)
x#35#49                                             1 	(obj:0.04556)
x#36#49                                             1 	(obj:0.06426)
x#37#4                                              1 	(obj:0.01717)
x#38#9                                              1 	(obj:0.0238)
x#39#3                                              1 	(obj:0.02125)
x#40#49                                             1 	(obj:0.05287)
x#41#47                                             1 	(obj:0.08245)
x#42#5                                              1 	(obj:0.03944)
x#43#2                                              1 	(obj:0.01513)
x#44#47                                             1 	(obj:0.05712)
x#45#47                                             1 	(obj:0.04029)
x#46#47                                             1 	(obj:0.1513)
x#47#5                                              1 	(obj:0.01071)
x#48#9                                              1 	(obj:0.04029)
x#49#31                                             1 	(obj:0.04301)
x#50#3                                              1 	(obj:0.02091)
x#51#2                                              1 	(obj:0.03485)
x#52#3                                              1 	(obj:0.02057)
x#53#9                                              1 	(obj:0.04879)
x#54#49                                             1 	(obj:0.06545)
x#55#9                                              1 	(obj:0.01717)
x#56#31                                             1 	(obj:0.05695)
x#57#2                                              1 	(obj:0.00323)
x#58#4                                              1 	(obj:0.0476)
x#59#47                                             1 	(obj:0.18717)
x#60#4                                              1 	(obj:0.02839)
x#61#4                                              1 	(obj:0.04828)
x#62#31                                             1 	(obj:0.09928)
x#63#9                                              1 	(obj:0.00748)
x#64#49                                             1 	(obj:0.16303)
x#65#5                                              1 	(obj:0.03298)
x#66#47                                             1 	(obj:0.13668)
x#67#3                                              1 	(obj:0.02261)
x#68#2                                              1 	(obj:0.04624)
x#69#3                                              1 	(obj:0.06715)
x#70#5                                              1 	(obj:0.03655)
x#71#47                                             1 	(obj:0.10047)
x#72#47                                             1 	(obj:0.05219)
x#73#3                                              1 	(obj:0.02686)
x#74#9                                              1 	(obj:0.03349)
x#75#5                                              1 	(obj:0.05304)
x#76#5                                              1 	(obj:0.04947)
x#77#31                                             1 	(obj:0.03927)
x#78#31                                             1 	(obj:0.05219)
x#79#5                                              1 	(obj:0.00374)
x#80#5                                              1 	(obj:0.04998)
x#81#31                                             1 	(obj:0.06426)
x#82#2                                              1 	(obj:0.06239)
x#83#2                                              1 	(obj:0.00578)
x#84#4                                              1 	(obj:0.04097)
x#85#49                                             1 	(obj:0.11679)
x#86#47                                             1 	(obj:0.1428)
x#87#2                                              1 	(obj:0.01819)
x#88#2                                              1 	(obj:0.03723)
x#89#9                                              1 	(obj:0.00697)
x#90#3                                              1 	(obj:0.0272)
